c description: Random 6-CNF over 10 variables and 6 clauses
c generator: CNFgen (0.9.3-1)
c copyright: (C) 2012-2022 Massimo Lauria <massimo.lauria@uniroma1.it>
c url: https://massimolauria.net/cnfgen
c command line: cnfgen randkcnf 6 10 6
c
p cnf 10 6
-3 -4 -7 -8 -9 10 0
-2 -4 6 7 -8 10 0
1 -2 5 -6 8 -9 0
2 3 -6 -7 -8 9 0
-1 -3 6 7 9 10 0
2 3 4 7 -9 10 0
